unsat
(:SPACER-cluster-out-of-gas           59
 :SPACER-concretize                   203
 :SPACER-conj                         20
 :SPACER-expand-pob-undef             25
 :SPACER-inductive-gen                397
 :SPACER-inductive-gen-weaken-fail    678
 :SPACER-inductive-gen-weaken-success 74
 :SPACER-inductive-level              9
 :SPACER-max-depth                    16
 :SPACER-max-query-lvl                16
 :SPACER-non-local-gen                122
 :SPACER-num-active-lemmas            76
 :SPACER-num-ctp-blocked              133
 :SPACER-num-invariants               215
 :SPACER-num-is_invariant             1931
 :SPACER-num-lemma-jumped             26
 :SPACER-num-lemmas                   360
 :SPACER-num-non-lin                  107
 :SPACER-num-pobs                     353
 :SPACER-num-propagations             1411
 :SPACER-num-queries                  250
 :SPACER-num-reach-queries            20
 :SPACER-num-reuse-reach-facts        14
 :SPACER-pob-out-of-gas               5
 :SPACER-subsume-failed               3
 :SPACER-subsume-pob                  36
 :SPACER-subsume-success              58
 :added-eqs                           573142
 :arith-assert-diseq                  300826
 :arith-assert-lower                  772904
 :arith-assert-upper                  924582
 :arith-bound-prop                    120670
 :arith-branch-var                    56
 :arith-conflicts                     1576
 :arith-eq-adapter                    40698
 :arith-fixed-eqs                     151980
 :arith-gcd-conflicts                 20
 :arith-gcd-tests                     860
 :arith-gomory-cuts                   32
 :arith-ineq-splits                   56
 :arith-num-rows                      490
 :arith-offset-eqs                    124202
 :arith-patches                       94
 :arith-patches_succ                  4
 :arith-pivots                        19456
 :arith-row-summations                1147852
 :arith-tableau-max-columns           680
 :arith-tableau-max-rows              490
 :conflicts                           9954
 :decisions                           1801690
 :del-clause                          132736
 :final-checks                        3260
 :iuc_solver.num_proxies              1557
 :max-memory                          112.56
 :memory                              107.54
 :minimized-lits                      2996
 :mk-bool-var                         135092
 :mk-clause                           229596
 :num-allocs                          52442428898.00
 :num-checks                          9302
 :pool_solver.checks                  4651
 :pool_solver.checks.sat              1248
 :pool_solver.checks.undef            327
 :propagations                        5574490
 :rlimit-count                        29365268
 :time                                12.97
 :time.iuc_solver.get_iuc             0.97
 :time.iuc_solver.get_iuc.hyp_reduce1 0.41
 :time.iuc_solver.get_iuc.hyp_reduce2 0.57
 :time.iuc_solver.get_iuc.learn_core  0.13
 :time.pool_solver.proof              0.16
 :time.pool_solver.smt.total          9.11
 :time.pool_solver.smt.total.sat      5.01
 :time.pool_solver.smt.total.undef    0.95
 :time.spacer.ctp                     0.16
 :time.spacer.init_rules              0.00
 :time.spacer.mbp                     0.06
 :time.spacer.solve                   12.78
 :time.spacer.solve.propagate         3.04
 :time.spacer.solve.reach             9.74
 :time.spacer.solve.reach.children    0.24
 :time.spacer.solve.reach.cluster     0.84
 :time.spacer.solve.reach.gen.global  0.58
 :time.spacer.solve.reach.gen.ind     3.76
 :time.spacer.solve.reach.is-reach    0.07)
(:max-memory   112.56
 :memory       107.54
 :num-allocs   52442428898.00
 :rlimit-count 29365268
 :time         12.97
 :total-time   12.99)
